webassembly/ejemplos_dzn/folder14_json_83.dzn
TERM = { '.', 's(2)', 's(5)', 's(4)', 'in_1', 'local_0', 'local_1', 'in_2', 's(8)', 's(6)', 's(1)', 's(0)', 's(7)', 's(3)', 'in_0'};
null = '.';
s = 14;
n = 9;
ndeps = 4;
max_registers_sz = 4;
NR = 1;
registers = [|'local_1', 's(0)'|];
dependencies = [|'i32.load16_s_1', 'i32.store8_13', |'i32.load8_s_6', 'i32.store16_8', |'i32.store16_8', 'i32.load16_s_12', |'i32.load16_s_12', 'i32.store8_13'|];
GET_ENUM = { GET1, GET2, GET3, GET4, GET5};
SET_ENUM = { SET1, SET2, SET3, SET4, SET5};
TEE_ENUM = { TEE1, TEE2, TEE3, TEE4, TEE5};
N = 12;
OP = { 'i32.const_0', 'i32.load16_s_1', 'i32.add_0', 'i32.sub_0', 'i32.load8_s_6', 'i32.const_1', 'i32.store16_8', 'i32.const_2', 'i32.add_1', 'i32.load16_s_12', 'i32.store8_13', 'local.get_0' };
in_ops = [0, 1, 2, 2, 1, 0, 2, 0, 2, 1, 2, 0 ];
out_ops = [1, 1, 1, 1, 1, 1, 0, 1, 1, 1, 0, 1 ];
in1 = ['.', 's(6)', 'in_0', 'local_0', 's(2)', '.', 's(7)', '.', 's(8)', 's(4)', 's(5)', '.' ];
in2 = ['.', '.', 'in_1', 's(1)', '.', '.', 's(3)', '.', 's(0)', '.', 'in_2', '.' ];
in3 = ['.', '.', '.', '.', '.', '.', '.', '.', '.', '.', '.', '.' ];
out1 = ['s(6)', 's(0)', 's(1)', 's(2)', 's(3)', 's(7)', '.', 's(8)', 's(4)', 's(5)', '.', 'local_0' ];
out2 = ['.', '.', '.', '.', '.', '.', '.', '.', '.', '.', '.', '.' ];
out3 = ['.', '.', '.', '.', '.', '.', '.', '.', '.', '.', '.', '.' ];
comm = [false, false, true, false, false, false, false, false, true, false, false, false ];
gas = [1, 1, 1, 1, 1, 1, 1, 1, 1, 1, 1, 1 ];
sz = [1, 1, 1, 1, 1, 1, 1, 1, 1, 1, 1, 1 ];
stor = [false, false, false, false, false, false, true, false, false, false, true, false ];
lb = [ 1, 1, 1, 1, 1, 1, 1, 1, 1, 1, 1, 1 ];
ub = [ 14, 14, 14, 14, 14, 14, 14, 14, 14, 14, 14, 14 ];
startstack = [ 'in_0', 'in_1', 'in_2', null, null, null, null, null, null ];
endstack = [ null, null, null, null, null, null, null, null, null ];
